100 8
255 286
140 305
777 215
214 543
700 576
534 520
666 699
126 171
633 612
794 161
190 402
581 731
436 788
252 489
276 193
839 125
850 922
549 138
597 595
661 667
487 983
663 494
742 189
334 445
363 935
734 603
117 273
856 257
480 51
566 814
674 572
706 106
857 847
459 19
164 187
685 501
573 721
485 112
525 107
775 289
576 672
703 618
686 576
226 391
463 902
778 408
300 594
834 149
730 622
111 886
822 636
725 660
801 129
712 710
702 105
94 689
648 641
852 826
934 928
485 567
432 328
862 527
277 478
332 427
802 166
580 190
246 561
524 158
528 742
732 455
57 709
695 268
489 876
590 167
871 147
830 158
278 152
743 644
711 797
603 212
720 156
839 130
689 490
142 735
800 184
438 122
831 446
787 411
167 266
86 770
41 813
743 721
544 650
285 125
659 638
592 644
551 548
536 572
966 804
783 260
